Data path: /scratch/opt/lxu/CFLG/benchmarks/tree_B
Instance: treeB.20.6
Result path: /scratch/opt/lxu/CFLG/results/tree_B
Solver: Gurobi
Time limit: 7200
Formulation: EFP
Cover: Large
julia --project=. src/main.jl /scratch/opt/lxu/CFLG/benchmarks/tree_B treeB.20.6 /scratch/opt/lxu/CFLG/results/tree_B Gurobi 7200 EFP Large
The latest version of Julia in the `release` channel is 1.11.6+0.x64.linux.gnu. You currently have `1.11.4+0.x64.linux.gnu` installed. Run:

  juliaup update

in your terminal shell to install Julia 1.11.6+0.x64.linux.gnu and update the `release` channel to that version.
/scratch/opt/lxu/CFLG/benchmarks/tree_B Gurobi 7200.0 /scratch/opt/lxu/CFLG/results/tree_B treeB.20.6 EFP Large
/scratch/opt/lxu/CFLG/benchmarks/tree_B/treeB.20.6

 read graph
data loaded

problem_graph/original graph: node: 20/20 edge: 25/25 dlt: 2.9803900125702723 break_avg_len: 1.4901950062851361 break_max_len: 1.9731157639793706elapsed CPU time: 0.021803 seconds
Set parameter TokenServer to value "solice01.zib.de"
Set parameter Threads to value 1
Set parameter OutputFlag to value 1
Set parameter MIPGap to value 0.0001
Set parameter TimeLimit to value 7199.978197

 more cuts: false 2.9803900125702723 false
is_attach:falseformulation:EFP0 25 20

 model loaded

Gurobi Optimizer version 12.0.1 build v12.0.1rc0 (linux64 - "Debian GNU/Linux 12 (bookworm)")

CPU model: Intel(R) Xeon(R) Gold 5222 CPU @ 3.80GHz, instruction set [SSE2|AVX|AVX2|AVX512]
Thread count: 8 physical cores, 16 logical processors, using up to 1 threads

Non-default parameters:
TimeLimit  7199.978197
Threads  1

Optimize a model with 926 rows, 472 columns and 2603 nonzeros
Model fingerprint: 0x48d31edb
Variable types: 70 continuous, 402 integer (402 binary)
Coefficient statistics:
  Matrix range     [1e-06, 4e+00]
  Objective range  [1e+00, 1e+00]
  Bounds range     [1e+00, 2e+00]
  RHS range        [1e+00, 5e+00]
Found heuristic solution: objective 9.0000000
Presolve removed 336 rows and 137 columns
Presolve time: 0.04s
Presolved: 590 rows, 335 columns, 4932 nonzeros
Variable types: 39 continuous, 296 integer (296 binary)

Root relaxation: objective 3.500000e+00, 323 iterations, 0.00 seconds (0.01 work units)

    Nodes    |    Current Node    |     Objective Bounds      |     Work
 Expl Unexpl |  Obj  Depth IntInf | Incumbent    BestBd   Gap | It/Node Time

     0     0    3.50000    0   26    9.00000    3.50000  61.1%     -    0s
H    0     0                       5.0000000    3.50000  30.0%     -    0s
H    0     0                       4.0000000    3.50000  12.5%     -    0s
     0     0    3.50000    0   26    4.00000    3.50000  12.5%     -    0s

Explored 1 nodes (825 simplex iterations) in 0.05 seconds (0.05 work units)
Thread count was 1 (of 16 available processors)

Solution count 3: 4 5 9 

Optimal solution found (tolerance 1.00e-04)
Warning: max constraint violation (1.1851e-06) exceeds tolerance
Best objective 4.000000000000e+00, best bound 4.000000000000e+00, gap 0.0000%

User-callback calls 688, time in user-callback 0.00 sec

 sepatime0 0 0
4.0
Stat(MathOptInterface.OPTIMAL, 4.0, 4.0, 0.0, 0.0, 0.021803, 0.054490089416503906, 1, Main.CFLG.EFP, "", #undef)
ERROR: LoadError: SystemError: opening file "/scratch/opt/lxu/CFLG/results/tree_B/treeB.20.6.EFP.Large": No such file or directory
Stacktrace:
 [1] systemerror(p::String, errno::Int32; extrainfo::Nothing)
   @ Base ./error.jl:176
 [2] systemerror
   @ ./error.jl:175 [inlined]
 [3] open(fname::String; lock::Bool, read::Nothing, write::Nothing, create::Nothing, truncate::Bool, append::Nothing)
   @ Base ./iostream.jl:295
 [4] open
   @ ./iostream.jl:277 [inlined]
 [5] open(fname::String, mode::String; lock::Bool)
   @ Base ./iostream.jl:358
 [6] open
   @ ./iostream.jl:357 [inlined]
 [7] main(args::Vector{String})
   @ Main /scratch/opt/lxu/CFLG/src/main.jl:51
 [8] top-level scope
   @ /scratch/opt/lxu/CFLG/src/main.jl:57
in expression starting at /scratch/opt/lxu/CFLG/src/main.jl:57
srun: error: htc-cmp483: task 0: Exited with exit code 1
